\ This file has been generated by DOcplex
\ ENCODING=ISO-8859-1
\Problem name: trans

Minimize
 obj: 17 x_A1_B1 + 10 x_A1_B2 + 15 x_A1_B3 + 20 x_A1_B4 + 37 x_A2_B1
      + 26 x_A2_B2 + 17 x_A2_B3 + 12 x_A2_B4
Subject To
 DemandB1: x_A1_B1 + x_A2_B1 = 20
 DemandB2: x_A1_B2 + x_A2_B2 = 30
 DemandB3: x_A1_B3 + x_A2_B3 = 80
 DemandB4: x_A1_B4 + x_A2_B4 = 70
 Supply_A1: x_A1_B1 + x_A1_B2 + x_A1_B3 + x_A1_B4 <= 100
 Supply_A2: x_A2_B1 + x_A2_B2 + x_A2_B3 + x_A2_B4 <= 100

Bounds
End
